10J3M/DAT/10J3MNTR-19.dat
10 3
25.0813 23.3697
25.1344 47.0357
27.4872 14.3488
18.5643 21.1959
22.0176 6.7537
22.9996 23.0697
25.8342 6.7163
24.8843 41.1382
20.0127 29.5456
16.6552 2.2147
53.8471