10J3M/SOL/10J3MNTR-19.sol
solution status: optimal solution found
objective value:                     66.4720924257746
x#1#1                                0.30988003527926 	(obj:0)
x#1#2                                0.69011996472074 	(obj:0)
x#3#3                                               1 	(obj:0)
x#4#1                                               1 	(obj:0)
x#5#2                                               1 	(obj:0)
x#6#1                                               1 	(obj:0)
x#7#1                              0.0186109226113015 	(obj:0)
x#7#2                               0.289919643186285 	(obj:0)
x#7#3                               0.691469434202414 	(obj:0)
x#8#3                               0.834428827707581 	(obj:0)
x#9#2                               0.982153557921778 	(obj:0)
x#9#3                              0.0178464420782223 	(obj:0)
x#10#1                                              1 	(obj:0)
z                                    66.4720924257746 	(obj:1)
